NAME : problems/30-tsp/instance-11.tsp
COMMENT : No Comment
TYPE : TSP
DIMENSION: 30
EDGE_WEIGHT_TYPE : EUC_2D
NODE_COORD_SECTION
1 8423 5952 
2 3032 6790 
3 9309 9156 
4 6632 4496 
5 6209 3540 
6 905 6444 
7 7939 7064 
8 6991 7798 
9 9194 6225 
10 4950 7574 
11 1515 3031 
12 7495 229 
13 3790 3605 
14 8908 2025 
15 4848 7602 
16 9271 370 
17 290 7844 
18 6033 5576 
19 9832 3393 
20 54 1168 
21 807 7095 
22 8266 4192 
23 9299 1547 
24 7645 5605 
25 7860 4365 
26 7999 4937 
27 7312 6095 
28 9873 3693 
29 2848 8131 
30 5022 1496 
EOF
